nbNodes = 12;
nbVehi = 5;
nbServi = 5;

e = 
 [|    0,  163,  146,  443,  128,  330,  250,  442,  310,  314,  430,    0,
 |    0,  287,   67,  183,  151,  267,  376,  149,  112,  306,  212,    0,
 |    0,  368,  132,   84,  213,  261,  126,  321,   91,   99,   15,    0,
 |    0,  298,  332,  448,  108,  249,  458,  318,  480,  101,  350,    0,
 |    0,  419,  445,  218,  313,  313,  219,  269,  127,   78,   44,    0,
 |];

l = 
 [| 480, 220, 179, 503, 163, 364, 284, 482, 349, 350, 460, 480,
 | 480, 329, 112, 243, 187, 310, 411, 186, 150, 364, 258, 480,
 | 480, 414, 186, 138, 245, 310, 158, 368, 126, 133,  66, 480,
 | 480, 345, 385, 506, 168, 293, 512, 350, 529, 148, 402, 480,
 | 480, 472, 476, 259, 367, 358, 249, 304, 183, 132,  98, 480,
 |];

a = 
 [|  1,  0,  0,  0,  0,
 |  0,  1,  0,  0,  0,
 |  0,  0,  1,  0,  0,
 |  0,  0,  0,  1,  0,
 |  0,  0,  0,  0,  1,
 |];

p = array3d(1..nbNodes,1..nbVehi,1..nbServi,
[  0,  0,  0,  0,  0,	  0,  0,  0,  0,  0,	  0,  0,  0,  0,  0,	  0,  0,  0,  0,  0,	  0,  0,  0,  0,  0,	
 14,  8, 12,  5, 29,	 20, 29, 29, 25, 19,	 18, 18, 13,  8, 21,	 13, 13, 20, 15, 25,	 28,  8, 19, 13,  9,	
 27, 29, 14,  9, 18,	 20, 18, 22, 27, 18,	 21, 17, 19, 22, 14,	  9, 13, 27, 17, 16,	 21, 27, 26, 13, 14,	
 21, 14, 17, 13, 22,	 24, 10, 23,  8, 14,	 14, 23, 27,  6, 20,	 17, 24,  9,  7, 19,	 21, 13, 27, 18, 27,	
 15, 11, 24, 11, 20,	 10,  5, 29, 22, 13,	 23, 16, 18, 19, 22,	  5, 28, 15, 29,  6,	  8, 17, 27, 14, 21,	
 16,  5,  6, 13, 21,	 28, 23, 27, 24,  5,	 19, 29,  7, 20, 23,	 15, 14, 12,  5,  5,	 29,  7,  5, 14,  7,	
  8, 19, 21,  5, 29,	 14, 17, 29, 15, 25,	 20, 13, 21, 18,  9,	 23,  7,  8, 25, 23,	 28, 12,  9, 10, 12,	
 11,  9, 15, 13, 21,	 19, 16, 10, 10, 16,	  9, 19, 28,  9,  6,	 24, 26, 16, 17, 14,	 20, 10, 19, 25,  5,	
 14, 23, 12, 20, 29,	 21, 26, 10,  8,  9,	 26, 22, 20,  9, 27,	  6, 13, 18,  7, 19,	 19, 28, 16,  5, 15,	
 27, 22, 20, 16, 17,	 22, 27, 11,  6, 17,	 12, 22, 15, 17, 26,	 19, 16, 18, 11, 20,	 18, 15,  5,  8, 17,	
 20, 23, 15,  8, 25,	 25,  5, 18, 17, 19,	  7,  9, 16, 13, 10,	 29, 22, 27, 16, 12,	 25,  6, 23, 16, 14,	
  0,  0,  0,  0,  0,	  0,  0,  0,  0,  0,	  0,  0,  0,  0,  0,	  0,  0,  0,  0,  0,	  0,  0,  0,  0,  0,	
]);

rs = 
[|true,true,true,true,true,
 |false,false,false,false,true,
 |false,true,false,false,false,
 |true,false,false,false,false,
 |false,false,true,false,false,
 |false,false,false,true,false,
 |true,false,false,false,false,
 |false,false,true,false,false,
 |true,false,false,false,false,
 |true,false,false,false,false,
 |true,false,false,false,false,
 |true,true,true,true,true,
 |];

d=[|0, 22, 1, 15, 24, 14, 8, 19, 25, 24, 29, 0, 
|22, 0, 23, 38, 47, 25, 15, 42, 10, 26, 17, 22, 
|1, 23, 0, 15, 24, 16, 9, 19, 26, 23, 30, 1, 
|15, 38, 15, 0, 8, 23, 23, 6, 40, 34, 42, 15, 
|24, 47, 24, 8, 0, 31, 32, 6, 49, 40, 50, 24, 
|14, 25, 16, 23, 31, 0, 12, 29, 21, 38, 20, 14, 
|8, 15, 9, 23, 32, 12, 0, 27, 17, 26, 21, 8, 
|19, 42, 19, 6, 6, 29, 27, 0, 45, 34, 47, 19, 
|25, 10, 26, 40, 49, 21, 17, 45, 0, 35, 7, 25, 
|24, 26, 23, 34, 40, 38, 26, 34, 35, 0, 42, 24, 
|29, 17, 30, 42, 50, 20, 21, 47, 7, 42, 0, 29, 
|0, 22, 1, 15, 24, 14, 8, 19, 25, 24, 29, 0, 
|];

%coord=[ (0,0), (-18,14), (1,1), (12,-10), (20,-14), (-11,-10), (-8,2), (18,-8), (-25,6), (6,24), (-29,0), (0,0), ];

